60
2 0 1
3 0 1
3 1 1
4 0 1
4 1 1
4 3 1
5 1 1
5 2 1
5 3 1
6 0 1
6 2 1
6 4 1
7 2 1
7 3 1
7 4 1
7 5 1
7 6 1
8 2 1
8 3 1
8 5 1
8 7 1
9 0 1
9 1 1
9 2 1
9 4 1
9 7 1
10 2 1
10 4 1
10 7 1
10 9 1
11 0 1
11 1 1
11 4 1
11 5 1
11 7 1
11 9 1
11 10 1
12 3 1
12 4 1
12 5 1
12 9 1
12 11 1
13 2 1
13 4 1
13 5 1
13 6 1
13 9 1
13 10 1
14 1 1
14 2 1
14 5 1
14 6 1
14 9 1
14 11 1
15 0 1
15 1 1
15 3 1
15 4 1
15 5 1
15 9 1
15 10 1
15 13 1
15 14 1
16 0 1
16 1 1
16 2 1
16 4 1
16 5 1
16 8 1
16 9 1
16 10 1
16 12 1
16 14 1
17 0 1
17 2 1
17 3 1
17 4 1
17 6 1
17 9 1
17 10 1
17 12 1
17 14 1
17 15 1
17 16 1
18 0 1
18 1 1
18 4 1
18 5 1
18 8 1
18 12 1
18 13 1
18 15 1
19 3 1
19 6 1
19 9 1
19 11 1
19 12 1
19 16 1
19 17 1
20 0 1
20 4 1
20 5 1
20 8 1
20 9 1
20 14 1
20 15 1
20 16 1
21 1 1
21 2 1
21 5 1
21 6 1
21 11 1
21 16 1
21 17 1
21 18 1
21 20 1
22 1 1
22 2 1
22 3 1
22 4 1
22 6 1
22 10 1
22 15 1
22 17 1
22 19 1
22 20 1
22 21 1
23 0 1
23 1 1
23 3 1
23 5 1
23 6 1
23 8 1
23 9 1
23 12 1
23 14 1
23 17 1
23 19 1
23 21 1
23 22 1
24 3 1
24 4 1
24 6 1
24 7 1
24 8 1
24 11 1
24 13 1
24 19 1
24 22 1
25 2 1
25 3 1
25 4 1
25 6 1
25 8 1
25 10 1
25 14 1
25 20 1
25 24 1
26 0 1
26 3 1
26 4 1
26 5 1
26 7 1
26 9 1
26 13 1
26 14 1
26 19 1
26 20 1
26 23 1
26 25 1
27 1 1
27 9 1
27 10 1
27 13 1
27 14 1
27 15 1
27 16 1
27 17 1
27 18 1
27 20 1
27 24 1
28 0 1
28 3 1
28 4 1
28 8 1
28 12 1
28 13 1
28 14 1
28 15 1
28 16 1
28 17 1
28 21 1
28 23 1
28 26 1
29 1 1
29 2 1
29 5 1
29 6 1
29 12 1
29 17 1
29 19 1
29 22 1
29 23 1
29 24 1
29 25 1
29 27 1
29 28 1
30 3 1
30 6 1
30 8 1
30 9 1
30 10 1
30 14 1
30 15 1
30 17 1
30 18 1
30 20 1
30 21 1
30 23 1
30 26 1
30 28 1
31 1 1
31 3 1
31 5 1
31 11 1
31 12 1
31 13 1
31 15 1
31 16 1
31 17 1
31 18 1
31 19 1
31 21 1
31 22 1
31 23 1
31 24 1
31 25 1
31 28 1
31 29 1
32 1 1
32 2 1
32 4 1
32 6 1
32 7 1
32 9 1
32 10 1
32 12 1
32 13 1
32 14 1
32 15 1
32 17 1
32 19 1
32 20 1
32 21 1
32 26 1
32 27 1
32 28 1
32 29 1
33 1 1
33 2 1
33 4 1
33 5 1
33 6 1
33 8 1
33 9 1
33 10 1
33 11 1
33 12 1
33 18 1
33 20 1
33 22 1
33 23 1
33 24 1
33 25 1
33 26 1
33 27 1
33 29 1
33 31 1
34 0 1
34 1 1
34 2 1
34 3 1
34 4 1
34 10 1
34 11 1
34 12 1
34 13 1
34 14 1
34 15 1
34 16 1
34 18 1
34 19 1
34 21 1
34 22 1
34 26 1
34 28 1
34 32 1
34 33 1
35 0 1
35 1 1
35 2 1
35 5 1
35 7 1
35 9 1
35 14 1
35 15 1
35 16 1
35 20 1
35 31 1
35 33 1
36 0 1
36 1 1
36 2 1
36 6 1
36 7 1
36 8 1
36 9 1
36 11 1
36 16 1
36 20 1
36 22 1
36 24 1
36 25 1
36 26 1
36 27 1
36 28 1
36 29 1
36 30 1
36 32 1
36 34 1
37 0 1
37 2 1
37 4 1
37 5 1
37 6 1
37 10 1
37 13 1
37 15 1
37 16 1
37 17 1
37 18 1
37 21 1
37 22 1
37 23 1
37 24 1
37 26 1
37 27 1
37 28 1
37 30 1
37 31 1
37 33 1
37 34 1
37 36 1
38 0 1
38 1 1
38 3 1
38 4 1
38 5 1
38 8 1
38 9 1
38 11 1
38 16 1
38 17 1
38 20 1
38 22 1
38 26 1
38 29 1
38 30 1
38 35 1
38 36 1
39 0 1
39 1 1
39 4 1
39 5 1
39 6 1
39 9 1
39 10 1
39 11 1
39 14 1
39 16 1
39 18 1
39 20 1
39 21 1
39 22 1
39 24 1
39 25 1
39 26 1
39 28 1
39 29 1
39 30 1
39 32 1
39 33 1
39 35 1
40 0 1
40 1 1
40 3 1
40 7 1
40 8 1
40 13 1
40 15 1
40 16 1
40 17 1
40 19 1
40 21 1
40 22 1
40 23 1
40 25 1
40 27 1
40 32 1
40 35 1
40 37 1
40 38 1
40 39 1
41 0 1
41 1 1
41 2 1
41 5 1
41 8 1
41 9 1
41 12 1
41 13 1
41 17 1
41 19 1
41 24 1
41 25 1
41 26 1
41 29 1
41 31 1
41 32 1
41 33 1
41 34 1
41 36 1
41 37 1
41 38 1
41 39 1
41 40 1
42 0 1
42 1 1
42 2 1
42 5 1
42 8 1
42 11 1
42 14 1
42 17 1
42 19 1
42 20 1
42 23 1
42 26 1
42 27 1
42 28 1
42 29 1
42 30 1
42 31 1
42 32 1
42 34 1
42 35 1
42 38 1
42 39 1
42 40 1
43 0 1
43 2 1
43 4 1
43 5 1
43 6 1
43 11 1
43 12 1
43 14 1
43 16 1
43 17 1
43 18 1
43 20 1
43 23 1
43 24 1
43 25 1
43 26 1
43 27 1
43 29 1
43 36 1
43 37 1
43 39 1
43 42 1
44 3 1
44 5 1
44 6 1
44 7 1
44 8 1
44 9 1
44 12 1
44 15 1
44 16 1
44 17 1
44 18 1
44 19 1
44 21 1
44 22 1
44 23 1
44 24 1
44 31 1
44 33 1
44 35 1
44 36 1
44 37 1
44 38 1
44 39 1
44 41 1
44 43 1
45 0 1
45 1 1
45 3 1
45 4 1
45 5 1
45 8 1
45 11 1
45 12 1
45 14 1
45 17 1
45 23 1
45 24 1
45 26 1
45 27 1
45 28 1
45 33 1
45 35 1
45 37 1
45 38 1
45 39 1
45 42 1
45 43 1
45 44 1
46 0 1
46 2 1
46 3 1
46 4 1
46 7 1
46 11 1
46 15 1
46 19 1
46 20 1
46 21 1
46 23 1
46 24 1
46 25 1
46 26 1
46 27 1
46 30 1
46 35 1
46 37 1
46 38 1
46 40 1
46 45 1
47 0 1
47 1 1
47 4 1
47 6 1
47 7 1
47 8 1
47 9 1
47 17 1
47 18 1
47 21 1
47 22 1
47 23 1
47 26 1
47 28 1
47 32 1
47 33 1
47 35 1
47 37 1
47 39 1
47 43 1
47 44 1
48 0 1
48 1 1
48 4 1
48 5 1
48 7 1
48 8 1
48 10 1
48 14 1
48 15 1
48 17 1
48 19 1
48 20 1
48 21 1
48 22 1
48 23 1
48 24 1
48 25 1
48 26 1
48 27 1
48 28 1
48 29 1
48 31 1
48 35 1
48 36 1
48 42 1
48 43 1
48 44 1
48 46 1
49 0 1
49 1 1
49 3 1
49 5 1
49 11 1
49 12 1
49 13 1
49 15 1
49 16 1
49 17 1
49 18 1
49 19 1
49 20 1
49 22 1
49 23 1
49 25 1
49 27 1
49 28 1
49 29 1
49 32 1
49 34 1
49 35 1
49 36 1
49 38 1
49 39 1
49 42 1
49 44 1
49 46 1
49 48 1
50 3 1
50 4 1
50 5 1
50 7 1
50 10 1
50 11 1
50 14 1
50 15 1
50 17 1
50 20 1
50 22 1
50 23 1
50 24 1
50 26 1
50 28 1
50 30 1
50 31 1
50 33 1
50 34 1
50 36 1
50 38 1
50 40 1
50 41 1
50 46 1
50 47 1
50 48 1
51 1 1
51 3 1
51 6 1
51 8 1
51 9 1
51 12 1
51 13 1
51 25 1
51 26 1
51 30 1
51 32 1
51 34 1
51 35 1
51 36 1
51 39 1
51 40 1
51 41 1
51 43 1
51 46 1
51 47 1
51 48 1
51 49 1
52 2 1
52 5 1
52 6 1
52 8 1
52 9 1
52 15 1
52 17 1
52 19 1
52 21 1
52 23 1
52 30 1
52 31 1
52 37 1
52 39 1
52 40 1
52 41 1
52 44 1
52 45 1
52 46 1
52 48 1
52 51 1
53 3 1
53 4 1
53 5 1
53 6 1
53 9 1
53 10 1
53 11 1
53 15 1
53 16 1
53 17 1
53 18 1
53 19 1
53 21 1
53 22 1
53 23 1
53 24 1
53 26 1
53 27 1
53 28 1
53 31 1
53 32 1
53 35 1
53 36 1
53 37 1
53 39 1
53 41 1
53 42 1
53 43 1
53 45 1
53 46 1
53 47 1
53 49 1
54 2 1
54 4 1
54 6 1
54 7 1
54 8 1
54 9 1
54 14 1
54 17 1
54 18 1
54 19 1
54 20 1
54 21 1
54 22 1
54 23 1
54 25 1
54 26 1
54 28 1
54 29 1
54 31 1
54 33 1
54 35 1
54 37 1
54 39 1
54 40 1
54 42 1
54 45 1
54 47 1
55 3 1
55 6 1
55 7 1
55 8 1
55 10 1
55 13 1
55 15 1
55 16 1
55 18 1
55 19 1
55 23 1
55 24 1
55 27 1
55 28 1
55 29 1
55 30 1
55 32 1
55 37 1
55 38 1
55 40 1
55 41 1
55 42 1
55 44 1
55 45 1
55 47 1
55 49 1
55 52 1
55 54 1
56 1 1
56 3 1
56 5 1
56 8 1
56 10 1
56 11 1
56 16 1
56 18 1
56 20 1
56 22 1
56 29 1
56 31 1
56 33 1
56 36 1
56 40 1
56 41 1
56 43 1
56 47 1
56 48 1
56 49 1
56 50 1
56 51 1
56 53 1
56 54 1
56 55 1
57 0 1
57 1 1
57 2 1
57 3 1
57 4 1
57 19 1
57 20 1
57 22 1
57 26 1
57 27 1
57 28 1
57 33 1
57 34 1
57 36 1
57 38 1
57 39 1
57 40 1
57 43 1
57 44 1
57 45 1
57 46 1
57 48 1
57 50 1
57 51 1
57 52 1
57 54 1
57 55 1
57 56 1
58 0 1
58 3 1
58 4 1
58 5 1
58 6 1
58 8 1
58 12 1
58 13 1
58 14 1
58 19 1
58 20 1
58 21 1
58 24 1
58 26 1
58 30 1
58 32 1
58 34 1
58 36 1
58 38 1
58 44 1
58 45 1
58 46 1
58 50 1
58 51 1
58 53 1
58 54 1
59 1 1
59 3 1
59 4 1
59 5 1
59 8 1
59 11 1
59 12 1
59 16 1
59 17 1
59 20 1
59 21 1
59 22 1
59 25 1
59 26 1
59 32 1
59 33 1
59 34 1
59 35 1
59 36 1
59 37 1
59 38 1
59 43 1
59 45 1
59 48 1
59 50 1
59 51 1
59 52 1
59 55 1
